(set-logic HORN)
(declare-datatypes ((Bool_0 0)) (((false_0 ) (true_0 ))))
(declare-fun diseqBool_0 (Bool_0 Bool_0) Bool)
(declare-datatypes ((Nat_0 0)) (((Z_0 ) (S_0 (projS_0 Nat_0)))))
(declare-datatypes ((list_0 0)) (((nil_0 ) (cons_0 (head_0 Nat_0) (tail_0 list_0)))))
(declare-fun barbar_0 (Bool_0 Bool_0 Bool_0) Bool)
(declare-fun x_1 (Bool_0 Nat_0 Nat_0) Bool)
(declare-fun elem_0 (Bool_0 Nat_0 list_0) Bool)
(declare-fun x_5 (Bool_0 Nat_0 Nat_0) Bool)
(declare-fun insert_0 (list_0 Nat_0 list_0) Bool)
(assert (diseqBool_0 false_0 true_0))
(assert (diseqBool_0 true_0 false_0))
(assert (forall ((y_0 Bool_0))
	(barbar_0 true_0 true_0 y_0)))
(assert (forall ((x_11 Bool_0) (x_0 Bool_0))
	(=> (diseqBool_0 x_0 true_0) (barbar_0 x_11 x_0 x_11))))
(assert (forall ((x_12 Bool_0) (y_2 Nat_0) (x_3 Nat_0))
	(=> (x_1 x_12 x_3 y_2) (x_1 x_12 (S_0 x_3) (S_0 y_2)))))
(assert (forall ((x_3 Nat_0))
	(x_1 false_0 (S_0 x_3) Z_0)))
(assert (forall ((z_1 Nat_0))
	(x_1 false_0 Z_0 (S_0 z_1))))
(assert (x_1 true_0 Z_0 Z_0))
(assert (forall ((x_17 Bool_0) (x_18 Bool_0) (x_19 Bool_0) (z_2 Nat_0) (xs_0 list_0) (x_4 Nat_0))
	(=> (and (x_1 x_18 x_4 z_2) (elem_0 x_19 x_4 xs_0) (barbar_0 x_17 x_18 x_19)) (elem_0 x_17 x_4 (cons_0 z_2 xs_0)))))
(assert (forall ((x_4 Nat_0))
	(elem_0 false_0 x_4 nil_0)))
(assert (forall ((x_22 Bool_0) (x_7 Nat_0) (z_3 Nat_0))
	(=> (x_5 x_22 z_3 x_7) (x_5 x_22 (S_0 z_3) (S_0 x_7)))))
(assert (forall ((z_3 Nat_0))
	(x_5 false_0 (S_0 z_3) Z_0)))
(assert (forall ((y_4 Nat_0))
	(x_5 true_0 Z_0 y_4)))
(assert (forall ((z_4 Nat_0) (xs_1 list_0) (x_8 Nat_0))
	(=> (x_5 true_0 x_8 z_4) (insert_0 (cons_0 x_8 (cons_0 z_4 xs_1)) x_8 (cons_0 z_4 xs_1)))))
(assert (forall ((x_30 list_0) (x_28 Bool_0) (z_4 Nat_0) (xs_1 list_0) (x_8 Nat_0))
	(=> (and (diseqBool_0 x_28 true_0) (insert_0 x_30 x_8 xs_1) (x_5 x_28 x_8 z_4)) (insert_0 (cons_0 z_4 x_30) x_8 (cons_0 z_4 xs_1)))))
(assert (forall ((x_8 Nat_0))
	(insert_0 (cons_0 x_8 nil_0) x_8 nil_0)))
(assert (forall ((x_32 list_0) (x_33 Bool_0) (x_9 Nat_0) (z_5 list_0))
	(=> (and (diseqBool_0 x_33 true_0) (insert_0 x_32 x_9 z_5) (elem_0 x_33 x_9 x_32)) false)))
(check-sat)
(get-model)
